(set-info :smt-lib-version 2.6)
(set-logic ALIA)
(set-info :source |
Generated by the tool Ultimate Automizer [1,2] which implements
an automata theoretic approach [3] to software verification.

This SMT script belongs to a set of SMT scripts that was generated by
applying Ultimate Automizer to benchmarks [4] from the SV-COMP 2023 [5,6].
This script may not contain all SMT commands that Ultimate Automizer
issued. In order to meet the restrictions for SMT-COMP benchmarks 
we dropped the commands for getting values (resp. models), 
unsatisfiable cores, and interpolants.

2023-03-21, Matthias Heizmann (heizmann@informatik.uni-freiburg.de)

[1] https://ultimate.informatik.uni-freiburg.de/automizer/
[2] Matthias Heizmann, Max Barth, Daniel Dietsch, Leonard Fichtner,
     Jochen Hoenicke, Dominik Klumpp, Mehdi Naouar, Tanja Schindler,
     Frank Schüssele, Andreas Podelski: Ultimate Automizer and the
     CommuHash Normal Form (Competition Contribution). TACAS 2023
[3] Matthias Heizmann, Jochen Hoenicke, Andreas Podelski: Software Model
     Checking for People Who Love Automata. CAV 2013
[4] https://github.com/sosy-lab/sv-benchmarks
[5] Dirk Beyer: Competition on Software Verification and
     Witness Validation: SV-COMP 2023.  TACAS 2023
[6] https://sv-comp.sosy-lab.org/2023/
|)
(set-info :license "https://creativecommons.org/licenses/by/4.0/")
(set-info :category "industrial")
(set-info :status unknown)
(declare-fun ~unnamed0~0~P_ALL () Int)
(declare-fun ~unnamed0~0~P_PID () Int)
(declare-fun ~unnamed0~0~P_PGID () Int)
(declare-fun |c_#memory_$Pointer$.base| () (Array Int (Array Int Int)))
(declare-fun |c_#memory_$Pointer$.offset| () (Array Int (Array Int Int)))
(declare-fun |c_ULTIMATE.start_main_~#s~0#1.offset| () Int)
(declare-fun |c_ULTIMATE.start_dll_create_~new_head~0#1.base| () Int)
(declare-fun |c_ULTIMATE.start_dll_create_~new_head~0#1.offset| () Int)
(declare-fun |c_ULTIMATE.start_dll_create_~head~0#1.base| () Int)
(declare-fun |c_ULTIMATE.start_dll_create_~head~0#1.offset| () Int)
(assert (= ~unnamed0~0~P_ALL 0))
(assert (= ~unnamed0~0~P_PID 1))
(assert (= 2 ~unnamed0~0~P_PGID))
(assert (let ((.cse0 (+ |c_ULTIMATE.start_dll_create_~new_head~0#1.offset| 4)) (.cse1 (+ 12 |c_ULTIMATE.start_dll_create_~new_head~0#1.offset|)) (.cse8 (+ |c_ULTIMATE.start_dll_create_~head~0#1.offset| 12))) (and (forall ((v_arrayElimArr_5 (Array Int Int)) (v_ArrVal_663 Int) (v_arrayElimArr_4 (Array Int Int)) (|ULTIMATE.start_main_~#s~0#1.base| Int)) (let ((.cse6 (let ((.cse9 (store |c_#memory_$Pointer$.offset| |c_ULTIMATE.start_dll_create_~new_head~0#1.base| v_arrayElimArr_5))) (store .cse9 |c_ULTIMATE.start_dll_create_~head~0#1.base| (store (select .cse9 |c_ULTIMATE.start_dll_create_~head~0#1.base|) .cse8 v_ArrVal_663)))) (.cse4 (let ((.cse7 (store |c_#memory_$Pointer$.base| |c_ULTIMATE.start_dll_create_~new_head~0#1.base| v_arrayElimArr_4))) (store .cse7 |c_ULTIMATE.start_dll_create_~head~0#1.base| (store (select .cse7 |c_ULTIMATE.start_dll_create_~head~0#1.base|) .cse8 |c_ULTIMATE.start_dll_create_~new_head~0#1.base|))))) (let ((.cse3 (select (select .cse4 |ULTIMATE.start_main_~#s~0#1.base|) |c_ULTIMATE.start_main_~#s~0#1.offset|)) (.cse2 (select (select .cse6 |ULTIMATE.start_main_~#s~0#1.base|) |c_ULTIMATE.start_main_~#s~0#1.offset|))) (or (not (= (select v_arrayElimArr_4 .cse0) |c_ULTIMATE.start_dll_create_~head~0#1.base|)) (not (= (select v_arrayElimArr_5 .cse1) 0)) (not (= .cse2 |c_ULTIMATE.start_dll_create_~new_head~0#1.offset|)) (not (= .cse3 |c_ULTIMATE.start_dll_create_~new_head~0#1.base|)) (not (= |c_ULTIMATE.start_dll_create_~head~0#1.offset| (select v_arrayElimArr_5 .cse0))) (= (let ((.cse5 (+ .cse2 4))) (select (select .cse4 (select (select .cse4 .cse3) .cse5)) (+ (select (select .cse6 .cse3) .cse5) 4))) 0))))) (forall ((v_ArrVal_663 Int) (v_arrayElimArr_2 (Array Int Int)) (v_arrayElimArr_3 (Array Int Int)) (|ULTIMATE.start_main_~#s~0#1.base| Int)) (let ((.cse11 (let ((.cse16 (store |c_#memory_$Pointer$.offset| |c_ULTIMATE.start_dll_create_~new_head~0#1.base| v_arrayElimArr_3))) (store .cse16 |c_ULTIMATE.start_dll_create_~head~0#1.base| (store (select .cse16 |c_ULTIMATE.start_dll_create_~head~0#1.base|) .cse8 v_ArrVal_663)))) (.cse12 (let ((.cse15 (store |c_#memory_$Pointer$.base| |c_ULTIMATE.start_dll_create_~new_head~0#1.base| v_arrayElimArr_2))) (store .cse15 |c_ULTIMATE.start_dll_create_~head~0#1.base| (store (select .cse15 |c_ULTIMATE.start_dll_create_~head~0#1.base|) .cse8 |c_ULTIMATE.start_dll_create_~new_head~0#1.base|))))) (let ((.cse10 (select (select .cse12 |ULTIMATE.start_main_~#s~0#1.base|) |c_ULTIMATE.start_main_~#s~0#1.offset|)) (.cse14 (select (select .cse11 |ULTIMATE.start_main_~#s~0#1.base|) |c_ULTIMATE.start_main_~#s~0#1.offset|))) (or (not (= .cse10 |c_ULTIMATE.start_dll_create_~new_head~0#1.base|)) (= (let ((.cse13 (+ 4 .cse14))) (select (select .cse11 (select (select .cse12 .cse10) .cse13)) (+ 4 (select (select .cse11 .cse10) .cse13)))) 0) (not (= |c_ULTIMATE.start_dll_create_~new_head~0#1.offset| .cse14)) (not (= (select v_arrayElimArr_2 .cse0) |c_ULTIMATE.start_dll_create_~head~0#1.base|)) (not (= |c_ULTIMATE.start_dll_create_~head~0#1.offset| (select v_arrayElimArr_3 .cse0))) (not (= (select v_arrayElimArr_3 .cse1) 0)))))))))
(check-sat)
(exit)
